param set_len = 14;
param target_sum = 2756105913;
param values := [1] 2179369 [2] 533255115 [3] 549547541 [4] 222369088 [5] 650848097 [6] 358224114 [7] 151790992 [8] 227473313 [9] 321805005 [10] 472825507 [11] 576264681 [12] 966935300 [13] 544528688 [14] 303311368 ;
